p tw 100 16501 2 
1 3 
1 4 
1 5 
1 6 
1 7 
1 8 
1 9 
1 10 
1 11 
1 12 
1 13 
1 14 
1 15 
1 16 
1 17 
1 18 
1 19 
1 20 
1 21 
1 22 
1 23 
1 24 
1 34 
1 35 
1 36 
1 37 
1 38 
1 39 
1 40 
1 41 
1 42 
1 43 
2 3 
2 4 
2 5 
2 6 
2 7 
2 8 
2 9 
2 10 
2 11 
2 12 
2 13 
2 14 
2 24 
2 25 
2 26 
2 27 
2 28 
2 29 
2 30 
2 31 
2 32 
2 33 
2 34 
2 44 
2 45 
2 46 
2 47 
2 48 
2 49 
2 50 
2 51 
2 52 
3 4 
3 5 
3 6 
3 7 
3 8 
3 9 
3 10 
3 11 
3 12 
3 15 
3 20 
3 25 
3 28 
3 35 
3 42 
3 44 
3 48 
3 53 
3 54 
3 55 
3 56 
3 57 
3 58 
3 59 
3 65 
3 68 
3 74 
3 92 
3 96 
3 97 
3 98 
4 5 
4 6 
4 7 
4 8 
4 9 
4 10 
4 11 
4 12 
4 16 
4 17 
4 26 
4 27 
4 36 
4 38 
4 44 
4 45 
4 53 
4 60 
4 61 
4 62 
4 63 
4 64 
4 65 
4 66 
4 72 
4 73 
4 74 
4 75 
4 76 
4 77 
5 6 
5 7 
5 8 
5 9 
5 10 
5 11 
5 12 
5 13 
5 16 
5 32 
5 37 
5 39 
5 46 
5 51 
5 54 
5 59 
5 60 
5 66 
5 67 
5 68 
5 69 
5 70 
5 71 
5 76 
5 80 
5 83 
5 90 
5 93 
5 97 
6 7 
6 8 
6 9 
6 10 
6 11 
6 12 
6 18 
6 20 
6 28 
6 30 
6 35 
6 39 
6 47 
6 49 
6 56 
6 61 
6 63 
6 66 
6 67 
6 72 
6 78 
6 79 
6 80 
6 81 
6 82 
6 85 
6 86 
6 87 
7 8 
7 9 
7 10 
7 11 
7 12 
7 15 
7 19 
7 29 
7 33 
7 37 
7 43 
7 48 
7 49 
7 55 
7 60 
7 62 
7 72 
7 73 
7 78 
7 82 
7 83 
7 84 
7 90 
7 94 
7 95 
7 96 
7 99 
8 9 
8 10 
8 11 
8 12 
8 18 
8 21 
8 24 
8 26 
8 41 
8 50 
8 52 
8 57 
8 58 
8 62 
8 67 
8 71 
8 74 
8 77 
8 82 
8 85 
8 88 
8 89 
8 90 
8 91 
8 97 
8 99 
9 10 
9 11 
9 12 
9 19 
9 22 
9 27 
9 31 
9 40 
9 42 
9 46 
9 47 
9 53 
9 59 
9 63 
9 70 
9 73 
9 79 
9 85 
9 89 
9 91 
9 92 
9 93 
9 94 
9 99 
9 100 
10 11 
10 12 
10 14 
10 23 
10 31 
10 32 
10 36 
10 38 
10 52 
10 55 
10 57 
10 64 
10 68 
10 70 
10 75 
10 78 
10 80 
10 86 
10 87 
10 88 
10 91 
10 94 
10 95 
10 98 
11 12 
11 21 
11 22 
11 30 
11 33 
11 34 
11 40 
11 45 
11 54 
11 58 
11 61 
11 69 
11 75 
11 77 
11 81 
11 83 
11 84 
11 86 
11 88 
11 93 
11 96 
11 98 
11 100 
12 17 
12 23 
12 25 
12 29 
12 41 
12 43 
12 50 
12 51 
12 56 
12 64 
12 65 
12 69 
12 71 
12 76 
12 79 
12 81 
12 84 
12 87 
12 89 
12 92 
12 95 
12 100 
13 14 
13 15 
13 16 
13 17 
13 18 
13 19 
13 20 
13 21 
13 22 
13 23 
13 24 
13 25 
13 26 
13 27 
13 28 
13 29 
13 30 
13 31 
13 32 
13 33 
13 37 
13 46 
13 54 
13 60 
13 66 
13 67 
13 68 
13 69 
13 70 
13 71 
14 15 
14 16 
14 17 
14 18 
14 19 
14 20 
14 21 
14 22 
14 23 
14 31 
14 34 
14 38 
14 44 
14 45 
14 46 
14 47 
14 48 
14 49 
14 50 
14 51 
14 52 
14 55 
14 64 
14 68 
14 80 
14 86 
14 88 
14 91 
14 95 
15 16 
15 17 
15 18 
15 19 
15 20 
15 21 
15 22 
15 23 
15 25 
15 33 
15 35 
15 43 
15 44 
15 49 
15 53 
15 54 
15 55 
15 56 
15 57 
15 58 
15 59 
15 60 
15 72 
15 90 
15 94 
15 95 
15 96 
15 99 
16 17 
16 18 
16 19 
16 20 
16 21 
16 22 
16 23 
16 26 
16 32 
16 36 
16 39 
16 45 
16 51 
16 53 
16 59 
16 60 
16 61 
16 62 
16 63 
16 64 
16 65 
16 76 
16 80 
16 83 
16 90 
16 93 
16 97 
17 18 
17 19 
17 20 
17 21 
17 22 
17 23 
17 25 
17 27 
17 38 
17 41 
17 44 
17 51 
17 65 
17 66 
17 69 
17 72 
17 73 
17 74 
17 75 
17 76 
17 77 
17 79 
17 84 
17 87 
17 89 
17 95 
18 19 
18 20 
18 21 
18 22 
18 23 
18 26 
18 28 
18 35 
18 41 
18 47 
18 52 
18 58 
18 61 
18 67 
18 71 
18 72 
18 77 
18 78 
18 79 
18 80 
18 81 
18 82 
18 91 
18 97 
18 99 
19 20 
19 21 
19 22 
19 23 
19 27 
19 29 
19 37 
19 40 
19 46 
19 48 
19 53 
19 55 
19 62 
19 73 
19 78 
19 79 
19 82 
19 83 
19 84 
19 85 
19 91 
19 92 
19 93 
19 94 
20 21 
20 22 
20 23 
20 28 
20 30 
20 39 
20 42 
20 48 
20 49 
20 56 
20 63 
20 65 
20 66 
20 68 
20 74 
20 82 
20 85 
20 86 
20 87 
20 92 
20 96 
20 97 
20 98 
21 22 
21 23 
21 24 
21 33 
21 34 
21 50 
21 54 
21 57 
21 61 
21 62 
21 67 
21 74 
21 77 
21 84 
21 85 
21 86 
21 88 
21 89 
21 90 
21 93 
21 98 
21 100 
22 23 
22 30 
22 31 
22 40 
22 42 
22 45 
22 47 
22 58 
22 59 
22 63 
22 69 
22 70 
22 73 
22 75 
22 81 
22 83 
22 88 
22 89 
22 96 
22 99 
22 100 
23 29 
23 32 
23 36 
23 43 
23 50 
23 52 
23 56 
23 57 
23 64 
23 70 
23 71 
23 75 
23 76 
23 78 
23 81 
23 87 
23 92 
23 94 
23 98 
23 100 
24 25 
24 26 
24 27 
24 28 
24 29 
24 30 
24 31 
24 32 
24 33 
24 34 
24 35 
24 36 
24 37 
24 38 
24 39 
24 40 
24 41 
24 42 
24 43 
24 50 
24 57 
24 62 
24 67 
24 74 
24 85 
24 88 
24 89 
24 90 
25 26 
25 27 
25 28 
25 29 
25 30 
25 31 
25 32 
25 33 
25 35 
25 41 
25 44 
25 51 
25 53 
25 54 
25 55 
25 56 
25 57 
25 58 
25 59 
25 65 
25 69 
25 79 
25 84 
25 87 
25 89 
25 95 
26 27 
26 28 
26 29 
26 30 
26 31 
26 32 
26 33 
26 36 
26 41 
26 45 
26 52 
26 53 
26 58 
26 60 
26 61 
26 62 
26 63 
26 64 
26 65 
26 71 
26 77 
26 82 
26 91 
26 97 
26 99 
27 28 
27 29 
27 30 
27 31 
27 32 
27 33 
27 38 
27 40 
27 44 
27 46 
27 53 
27 66 
27 72 
27 73 
27 74 
27 75 
27 76 
27 77 
27 79 
27 85 
27 91 
27 92 
27 93 
27 94 
28 29 
28 30 
28 31 
28 32 
28 33 
28 35 
28 42 
28 47 
28 48 
28 61 
28 65 
28 67 
28 68 
28 72 
28 74 
28 78 
28 79 
28 80 
28 81 
28 92 
28 96 
28 97 
28 98 
29 30 
29 31 
29 32 
29 33 
29 37 
29 43 
29 48 
29 50 
29 55 
29 56 
29 62 
29 64 
29 71 
29 73 
29 76 
29 78 
29 81 
29 82 
29 83 
29 84 
29 92 
29 100 
30 31 
30 32 
30 33 
30 39 
30 40 
30 45 
30 49 
30 56 
30 58 
30 63 
30 66 
30 69 
30 75 
30 81 
30 82 
30 83 
30 85 
30 86 
30 87 
30 88 
30 96 
31 32 
31 33 
31 38 
31 42 
31 47 
31 55 
31 59 
31 63 
31 64 
31 68 
31 70 
31 73 
31 80 
31 86 
31 88 
31 89 
31 91 
31 95 
31 99 
31 100 
32 33 
32 36 
32 39 
32 51 
32 52 
32 57 
32 59 
32 70 
32 75 
32 76 
32 78 
32 80 
32 83 
32 87 
32 90 
32 93 
32 94 
32 97 
32 98 
33 34 
33 43 
33 49 
33 54 
33 60 
33 61 
33 72 
33 77 
33 84 
33 86 
33 90 
33 93 
33 94 
33 95 
33 96 
33 98 
33 99 
33 100 
34 35 
34 36 
34 37 
34 38 
34 39 
34 40 
34 41 
34 42 
34 43 
34 44 
34 45 
34 46 
34 47 
34 48 
34 49 
34 50 
34 51 
34 52 
34 54 
34 61 
34 77 
34 84 
34 86 
34 93 
34 98 
34 100 
35 36 
35 37 
35 38 
35 39 
35 40 
35 41 
35 42 
35 43 
35 44 
35 47 
35 53 
35 54 
35 55 
35 56 
35 57 
35 58 
35 59 
35 61 
35 67 
35 72 
35 78 
35 79 
35 80 
35 81 
36 37 
36 38 
36 39 
36 40 
36 41 
36 42 
36 43 
36 45 
36 52 
36 53 
36 57 
36 60 
36 61 
36 62 
36 63 
36 64 
36 65 
36 70 
36 75 
36 78 
36 87 
36 94 
36 98 
37 38 
37 39 
37 40 
37 41 
37 42 
37 43 
37 46 
37 48 
37 54 
37 55 
37 60 
37 62 
37 66 
37 67 
37 68 
37 69 
37 70 
37 71 
37 73 
37 78 
37 82 
37 83 
37 84 
38 39 
38 40 
38 41 
38 42 
38 43 
38 44 
38 55 
38 64 
38 66 
38 68 
38 72 
38 73 
38 74 
38 75 
38 76 
38 77 
38 80 
38 86 
38 88 
38 91 
38 95 
39 40 
39 41 
39 42 
39 43 
39 49 
39 51 
39 56 
39 59 
39 63 
39 66 
39 76 
39 80 
39 82 
39 83 
39 85 
39 86 
39 87 
39 90 
39 93 
39 97 
40 41 
40 42 
40 43 
40 45 
40 46 
40 53 
40 58 
40 69 
40 75 
40 79 
40 81 
40 83 
40 85 
40 88 
40 91 
40 92 
40 93 
40 94 
40 96 
41 42 
41 43 
41 51 
41 52 
41 58 
41 65 
41 69 
41 71 
41 77 
41 79 
41 82 
41 84 
41 87 
41 89 
41 91 
41 95 
41 97 
41 99 
42 43 
42 47 
42 48 
42 59 
42 63 
42 65 
42 68 
42 70 
42 73 
42 74 
42 89 
42 92 
42 96 
42 97 
42 98 
42 99 
42 100 
43 49 
43 50 
43 56 
43 60 
43 64 
43 71 
43 72 
43 76 
43 81 
43 90 
43 92 
43 94 
43 95 
43 96 
43 99 
43 100 
44 45 
44 46 
44 47 
44 48 
44 49 
44 50 
44 51 
44 52 
44 53 
44 54 
44 55 
44 56 
44 57 
44 58 
44 59 
44 66 
44 72 
44 73 
44 74 
44 75 
44 76 
44 77 
45 46 
45 47 
45 48 
45 49 
45 50 
45 51 
45 52 
45 53 
45 58 
45 60 
45 61 
45 62 
45 63 
45 64 
45 65 
45 69 
45 75 
45 81 
45 83 
45 88 
45 96 
46 47 
46 48 
46 49 
46 50 
46 51 
46 52 
46 53 
46 54 
46 60 
46 66 
46 67 
46 68 
46 69 
46 70 
46 71 
46 79 
46 85 
46 91 
46 92 
46 93 
46 94 
47 48 
47 49 
47 50 
47 51 
47 52 
47 59 
47 61 
47 63 
47 67 
47 70 
47 72 
47 73 
47 78 
47 79 
47 80 
47 81 
47 89 
47 99 
47 100 
48 49 
48 50 
48 51 
48 52 
48 55 
48 62 
48 65 
48 68 
48 73 
48 74 
48 78 
48 82 
48 83 
48 84 
48 92 
48 96 
48 97 
48 98 
49 50 
49 51 
49 52 
49 56 
49 60 
49 63 
49 66 
49 72 
49 82 
49 85 
49 86 
49 87 
49 90 
49 94 
49 95 
49 96 
49 99 
50 51 
50 52 
50 56 
50 57 
50 62 
50 64 
50 67 
50 71 
50 74 
50 76 
50 81 
50 85 
50 88 
50 89 
50 90 
50 92 
50 100 
51 52 
51 59 
51 65 
51 69 
51 76 
51 79 
51 80 
51 83 
51 84 
51 87 
51 89 
51 90 
51 93 
51 95 
51 97 
52 57 
52 58 
52 70 
52 71 
52 75 
52 77 
52 78 
52 82 
52 87 
52 91 
52 94 
52 97 
52 98 
52 99 
53 54 
53 55 
53 56 
53 57 
53 58 
53 59 
53 60 
53 61 
53 62 
53 63 
53 64 
53 65 
53 79 
53 85 
53 91 
53 92 
53 93 
53 94 
54 55 
54 56 
54 57 
54 58 
54 59 
54 60 
54 61 
54 66 
54 67 
54 68 
54 69 
54 70 
54 71 
54 77 
54 84 
54 86 
54 93 
54 98 
54 100 
55 56 
55 57 
55 58 
55 59 
55 62 
55 64 
55 68 
55 73 
55 78 
55 80 
55 82 
55 83 
55 84 
55 86 
55 88 
55 91 
55 95 
56 57 
56 58 
56 59 
56 63 
56 64 
56 66 
56 71 
56 76 
56 81 
56 82 
56 85 
56 86 
56 87 
56 92 
56 100 
57 58 
57 59 
57 62 
57 67 
57 70 
57 74 
57 75 
57 78 
57 85 
57 87 
57 88 
57 89 
57 90 
57 94 
57 98 
58 59 
58 69 
58 71 
58 75 
58 77 
58 81 
58 82 
58 83 
58 88 
58 91 
58 96 
58 97 
58 99 
59 63 
59 70 
59 73 
59 76 
59 80 
59 83 
59 89 
59 90 
59 93 
59 97 
59 99 
59 100 
60 61 
60 62 
60 63 
60 64 
60 65 
60 66 
60 67 
60 68 
60 69 
60 70 
60 71 
60 72 
60 90 
60 94 
60 95 
60 96 
60 99 
61 62 
61 63 
61 64 
61 65 
61 67 
61 72 
61 77 
61 78 
61 79 
61 80 
61 81 
61 84 
61 86 
61 93 
61 98 
61 100 
62 63 
62 64 
62 65 
62 67 
62 73 
62 74 
62 78 
62 82 
62 83 
62 84 
62 85 
62 88 
62 89 
62 90 
63 64 
63 65 
63 66 
63 70 
63 73 
63 82 
63 85 
63 86 
63 87 
63 89 
63 99 
63 100 
64 65 
64 68 
64 71 
64 76 
64 80 
64 81 
64 86 
64 88 
64 91 
64 92 
64 95 
64 100 
65 68 
65 69 
65 74 
65 79 
65 84 
65 87 
65 89 
65 92 
65 95 
65 96 
65 97 
65 98 
66 67 
66 68 
66 69 
66 70 
66 71 
66 72 
66 73 
66 74 
66 75 
66 76 
66 77 
66 82 
66 85 
66 86 
66 87 
67 68 
67 69 
67 70 
67 71 
67 72 
67 74 
67 78 
67 79 
67 80 
67 81 
67 85 
67 88 
67 89 
67 90 
68 69 
68 70 
68 71 
68 74 
68 80 
68 86 
68 88 
68 91 
68 92 
68 95 
68 96 
68 97 
68 98 
69 70 
69 71 
69 75 
69 79 
69 81 
69 83 
69 84 
69 87 
69 88 
69 89 
69 95 
69 96 
70 71 
70 73 
70 75 
70 78 
70 87 
70 89 
70 94 
70 98 
70 99 
70 100 
71 76 
71 77 
71 81 
71 82 
71 91 
71 92 
71 97 
71 99 
71 100 
72 73 
72 74 
72 75 
72 76 
72 77 
72 78 
72 79 
72 80 
72 81 
72 90 
72 94 
72 95 
72 96 
72 99 
73 74 
73 75 
73 76 
73 77 
73 78 
73 82 
73 83 
73 84 
73 89 
73 99 
73 100 
74 75 
74 76 
74 77 
74 85 
74 88 
74 89 
74 90 
74 92 
74 96 
74 97 
74 98 
75 76 
75 77 
75 78 
75 81 
75 83 
75 87 
75 88 
75 94 
75 96 
75 98 
76 77 
76 80 
76 81 
76 83 
76 90 
76 92 
76 93 
76 97 
76 100 
77 82 
77 84 
77 86 
77 91 
77 93 
77 97 
77 98 
77 99 
77 100 
78 79 
78 80 
78 81 
78 82 
78 83 
78 84 
78 87 
78 94 
78 98 
79 80 
79 81 
79 84 
79 85 
79 87 
79 89 
79 91 
79 92 
79 93 
79 94 
79 95 
80 81 
80 83 
80 86 
80 88 
80 90 
80 91 
80 93 
80 95 
80 97 
81 83 
81 88 
81 92 
81 96 
81 100 
82 83 
82 84 
82 85 
82 86 
82 87 
82 91 
82 97 
82 99 
83 84 
83 88 
83 90 
83 93 
83 96 
83 97 
84 86 
84 87 
84 89 
84 93 
84 95 
84 98 
84 100 
85 86 
85 87 
85 88 
85 89 
85 90 
85 91 
85 92 
85 93 
85 94 
86 87 
86 88 
86 91 
86 93 
86 95 
86 98 
86 100 
87 89 
87 94 
87 95 
87 98 
88 89 
88 90 
88 91 
88 95 
88 96 
89 90 
89 95 
89 99 
89 100 
90 93 
90 94 
90 95 
90 96 
90 97 
90 99 
91 92 
91 93 
91 94 
91 95 
91 97 
91 99 
92 93 
92 94 
92 96 
92 97 
92 98 
92 100 
93 94 
93 97 
93 98 
93 100 
94 95 
94 96 
94 98 
94 99 
95 96 
95 99 
96 97 
96 98 
96 99 
97 98 
97 99 
98 100 
99 100 
